% company_type = A;

% The minimum earnings to obtain.
budget = 4000;
minimum_earnings = 8000;
available_time_in_hours = 2500;

% Co2 related constraints
previous_year_co2 = 4000;

% Products

Products = {Box, Big_Box};
RawMaterials = {Paper, Rec_Paper};

material_costs = [1, 2];
material_co2_emissions = [8, 4];

product_costs = [5, 9];
product_selling_prices = [20, 22];
co2_emissions = [8, 4];
product_times = [4,7];
product_materials = [[Paper, Rec_Paper], [Paper, Rec_Paper]];

product_materials = array3d(Products , 1..3, RawMaterials, [ 
  % Box 
  2, 0,     0, 2,    1, 1
  % Big_Box
  4, 0,     0, 4,   2, 2
]);

% an already recicled material is less reciclable than a non recicled one
% optional parameter (default = [])
product_reciclable_compositions = [0.9, 0.7];
% times_to_produce = [];
% minimum_number_of_products_to_make = [];
% raw_materials_of_products = [];

% Maybe turn arrays in a big matrix
Machinery = {M1, M2, M3};
m_yearly_uses = [100, 200, 500];
m_energy_per_hours = [15.01, 15.01, 15.01];
m_co2_per_hours = [0.02, 0.01, 0.0005];
m_water_per_hours = [200, 200, 300];

m_prices = [200, 250, 600];
m_resell_prices = [100, 125, 300];
max_n_machinery = 5;

% m_linked_products = [|true, false|true, true|];
% Should be <= sum(m_yearly_uses)
starting_machinery = [1, 2, 0];
max_hour_machine_usage = 5000;
% machine_budget = 300;
% 
